db/data/2005930478156741185727776190444828482.z3.out
sat
-------------------
36.552578246
